K = 3;
SteelQuantity = 1000;
ManganesePercent = 0.45;
SiliconMinPercent = 3.25;
SiliconMaxPercent = 5.0;
SiliconContent = [4.0, 1.0, 0.6];
ManganeseContent = [0.45, 0.5, 0.4];
ManganesePrice = 8.0;
MaterialCost = [21, 25, 15];
SellingPrice = 0.45;
MeltingPrice = 0.005;